Read MPS format model from file dat/rmp/DER_24_8192_40.mps
Reading time = 0.42 seconds
: 8216 rows, 48668 columns, 1095837 nonzeros
Gurobi Optimizer version 9.0.0 build v9.0.0rc2 (linux64)
Optimize a model with 8216 rows, 48668 columns and 1095837 nonzeros
Model fingerprint: 0x208c0766
Coefficient statistics:
  Matrix range     [3e-04, 1e+01]
  Objective range  [2e-01, 1e+03]
  Bounds range     [5e+04, 5e+04]
  RHS range        [1e+00, 1e+00]
Ordering time: 0.01s

Barrier statistics:
 AA' NZ     : 1.864e+05
 Factor NZ  : 2.620e+05 (roughly 25 MBytes of memory)
 Factor Ops : 9.100e+06 (less than 1 second per iteration)
 Threads    : 1

                  Objective                Residual
Iter       Primal          Dual         Primal    Dual     Compl     Time
   0   5.78287265e+08 -3.59748727e+07  2.18e+07 1.13e-02  3.17e+05     0s
   1   1.39263634e+07 -7.40106738e+06  5.02e+05 3.64e-12  7.42e+03     0s
   2   6.06120505e+05 -4.42543096e+06  2.17e+04 1.82e-12  4.01e+02     0s
   3   1.26335315e+04 -2.11029151e+06  2.82e-10 3.64e-12  4.36e+01     0s
   4   1.19887302e+04 -4.30945803e+04  7.45e-11 3.64e-12  1.13e+00     0s
   5   1.19665997e+04  8.54529615e+03  6.22e-11 5.46e-12  7.03e-02     0s
   6   1.17769707e+04  1.10109468e+04  4.31e-11 3.64e-12  1.57e-02     1s
   7   1.17041451e+04  1.15471292e+04  2.29e-10 3.64e-12  3.22e-03     1s
   8   1.16457355e+04  1.15992504e+04  1.13e-10 1.82e-12  9.55e-04     1s
   9   1.16337974e+04  1.16114581e+04  3.62e-10 1.82e-12  4.59e-04     1s
  10   1.16270174e+04  1.16164278e+04  3.61e-10 1.82e-12  2.17e-04     1s
  11   1.16246516e+04  1.16181597e+04  2.39e-10 1.82e-12  1.33e-04     1s
  12   1.16235873e+04  1.16194924e+04  2.78e-10 3.64e-12  8.41e-05     1s
  13   1.16233337e+04  1.16196338e+04  2.74e-10 1.82e-12  7.60e-05     1s
  14   1.16227528e+04  1.16202396e+04  3.75e-10 1.82e-12  5.16e-05     1s
  15   1.16224457e+04  1.16205826e+04  4.56e-10 1.82e-12  3.83e-05     1s
  16   1.16221981e+04  1.16209210e+04  5.95e-10 1.82e-12  2.62e-05     1s
  17   1.16220711e+04  1.16210650e+04  6.61e-10 1.82e-12  2.07e-05     1s
  18   1.16215729e+04  1.16211784e+04  1.30e-09 1.82e-12  8.10e-06     1s
  19   1.16214898e+04  1.16212632e+04  1.47e-09 1.82e-12  4.65e-06     1s
  20   1.16214741e+04  1.16213021e+04  1.23e-09 1.82e-12  3.53e-06     1s
  21   1.16214260e+04  1.16213313e+04  1.32e-09 1.82e-12  1.95e-06     1s
  22   1.16214102e+04  1.16213461e+04  1.34e-09 3.64e-12  1.32e-06     1s
  23   1.16213987e+04  1.16213574e+04  1.79e-09 3.64e-12  8.47e-07     1s
  24   1.16213906e+04  1.16213640e+04  2.44e-09 1.82e-12  5.45e-07     2s
  25   1.16213879e+04  1.16213688e+04  2.37e-09 3.64e-12  3.93e-07     2s
  26   1.16213856e+04  1.16213721e+04  2.68e-09 1.82e-12  2.77e-07     2s
  27   1.16213840e+04  1.16213732e+04  3.44e-09 1.82e-12  2.23e-07     2s
  28   1.16213831e+04  1.16213755e+04  3.99e-09 3.64e-12  1.57e-07     2s
  29   1.16213827e+04  1.16213759e+04  4.03e-09 3.64e-12  1.41e-07     2s
  30   1.16213824e+04  1.16213764e+04  3.63e-09 1.82e-12  1.24e-07     2s
  31   1.16213821e+04  1.16213767e+04  2.94e-09 1.82e-12  1.12e-07     2s
  32   1.16213818e+04  1.16213768e+04  2.64e-09 3.64e-12  1.02e-07     2s
  33   1.16213815e+04  1.16213772e+04  2.97e-09 3.64e-12  8.83e-08     2s
  34   1.16213810e+04  1.16213777e+04  3.31e-09 3.64e-12  6.85e-08     2s
  35   1.16213808e+04  1.16213780e+04  4.74e-09 1.82e-12  5.77e-08     2s
  36   1.16213807e+04  1.16213781e+04  4.78e-09 1.82e-12  5.30e-08     2s
  37   1.16213806e+04  1.16213784e+04  6.73e-09 1.82e-12  4.64e-08     2s
  38   1.16213804e+04  1.16213786e+04  7.32e-09 1.82e-12  3.73e-08     2s
  39   1.16213802e+04  1.16213788e+04  8.50e-09 3.64e-12  2.70e-08     2s
  40   1.16213800e+04  1.16213789e+04  1.86e-08 1.82e-12  2.22e-08     2s
  41   1.16213798e+04  1.16213790e+04  2.55e-08 1.82e-12  1.74e-08     2s
  42   1.16213797e+04  1.16213790e+04  5.26e-08 1.82e-12  1.34e-08     3s
  43   1.16213795e+04  1.16213791e+04  1.63e-07 1.82e-12  8.66e-09     3s
  44   1.16213795e+04  1.16213793e+04  1.37e-07 1.82e-12  4.46e-09     3s
  45   1.16213794e+04  1.16213793e+04  1.32e-07 1.82e-12  2.97e-09     3s
  46   1.16213794e+04  1.16213793e+04  7.90e-08 1.82e-12  1.39e-09     3s

Barrier solved model in 46 iterations and 2.72 seconds
Optimal objective 1.16213794e+04

Solve time: 2.723536698
Barrier iterations: 46
